51
86 83
15 77
35 93
92 86
21 49
27 62
59 90
26 63
26 40
36 72
68 11
29 67
30 82
23 62
35 67
2 29
58 22
67 69
56 93
42 11
73 29
19 21
37 84
24 98
70 15
26 13
80 91
73 56
70 62
81 96
25 5
27 84
5 36
29 46
57 13
95 24
45 82
67 14
64 34
50 43
8 87
78 76
84 88
51 3
99 54
60 32
68 76
12 39
86 26
39 94
101 101
